cpu-bind=MASK - n2lcn0166, task  0  0 [549717]: mask |--------|--------||--------|--------||--------|--------||--------|--------||||--------|--------||--------|--------||--------|--------||--BBBB--|--------|  set
started at Fri Mar 17 12:18:50 CET 2023
Timecheck 10015676.9689316
Set parameter TokenServer to value "license3.uni-paderborn.de"
Warning: Gurobi version mismatch between Python 10.0.1 and C library 10.0.0
Timecheck 10015676.987837676
Timecheck 10015676.988091132
Timecheck 10015676.988127831
Timecheck 10015676.98815256


####################################################################################################
Solve scenario sce_3_26_1 with free vessel operation using the arc flow model
Vessels can omit ports, Demands cannot be rejected
####################################################################################################
Data preprocessing, load /upb/departments/pc2/groups/hpc-prf-winf4/dwetzel/SILSRP/inst_final/sce_3_26_1
and create additional sets and parameters
	|- Read vessel information, number of vessels:	5
	|- Read node information, number of nodes:		369
	|- Read arc information
		|- Number of sailing arcs:			1499
		|- Number of transshipment arcs:	497
	|- Read container information
		|- Number of demands:		605
		|- Number of empties (+/-):	152/140
	|- Create additional sets and parameters

Data preprocessing took 	00:00:00.239
####################################################################################################
Create linear model
Set parameter Threads to value 4
	|- Create variables, took	00:00:00.283
	|- Create objective, took	00:00:00.226
	|- Create constraints, took	00:00:01.066
	|- Load heuristic start

Creating model took	00:00:01.754
####################################################################################################
Fix start solution

Set parameter TimeLimit to value 8.3706591449293774e+04
Gurobi Optimizer version 10.0.0 build v10.0.0rc2 (linux64)

CPU model: AMD EPYC 7763 64-Core Processor, instruction set [SSE2|AVX|AVX2]
Thread count: 128 physical cores, 128 logical processors, using up to 4 threads

Optimize a model with 23304 rows, 80428 columns and 272942 nonzeros
Model fingerprint: 0xf0b0ad91
Variable types: 71965 continuous, 8463 integer (8463 binary)
Coefficient statistics:
  Matrix range     [1e+00, 3e+06]
  Objective range  [1e+00, 1e+00]
  Bounds range     [1e+00, 3e+02]
  RHS range        [1e+00, 3e+08]
Found heuristic solution: objective 2.913888e+08
Presolve removed 21646 rows and 77161 columns
Presolve time: 0.16s
Presolved: 1658 rows, 3267 columns, 10685 nonzeros
Found heuristic solution: objective 3.632856e+07
Variable types: 2834 continuous, 433 integer (430 binary)

Root relaxation: objective 1.458056e+07, 554 iterations, 0.00 seconds (0.00 work units)

    Nodes    |    Current Node    |     Objective Bounds      |     Work
 Expl Unexpl |  Obj  Depth IntInf | Incumbent    BestBd   Gap | It/Node Time

*    0     0               0    1.458056e+07 1.4581e+07  0.00%     -    0s

Explored 1 nodes (554 simplex iterations) in 0.20 seconds (0.15 work units)
Thread count was 4 (of 128 available processors)

Solution count 3: 1.45806e+07 3.63286e+07 2.91389e+08 

Optimal solution found (tolerance 1.00e-04)
Best objective 1.458055900000e+07, best bound 1.458055900000e+07, gap 0.0000%

Fixing start solution took	00:00:01.998
####################################################################################################
####################################################################################################
Solve optimization model

Set parameter TimeLimit to value 83706.374969739
Gurobi Optimizer version 10.0.0 build v10.0.0rc2 (linux64)

CPU model: AMD EPYC 7763 64-Core Processor, instruction set [SSE2|AVX|AVX2]
Thread count: 128 physical cores, 128 logical processors, using up to 4 threads

Optimize a model with 23014 rows, 80428 columns and 272652 nonzeros
Model fingerprint: 0xef0eb82e
Variable types: 71965 continuous, 8463 integer (8463 binary)
Coefficient statistics:
  Matrix range     [1e+00, 3e+06]
  Objective range  [1e+00, 1e+00]
  Bounds range     [1e+00, 3e+02]
  RHS range        [1e+00, 3e+08]

MIP start from previous solve produced solution with objective 1.45806e+07 (0.13s)
Loaded MIP start from previous solve with objective 1.45806e+07

Presolve removed 2900 rows and 2560 columns
Presolve time: 0.44s
Presolved: 20114 rows, 77868 columns, 230670 nonzeros
Variable types: 70024 continuous, 7844 integer (7844 binary)
Deterministic concurrent LP optimizer: primal and dual simplex
Showing first log only...


Root simplex log...

Iteration    Objective       Primal Inf.    Dual Inf.      Time
   43446    1.3262370e+07   0.000000e+00   1.543245e+08      5s
   74254    1.0128247e+07   0.000000e+00   2.768763e+07     10s
   99355    9.0177374e+06   0.000000e+00   2.564779e+07     15s
  122403    8.5465106e+06   0.000000e+00   3.211347e+07     20s
  142871    8.2795558e+06   0.000000e+00   1.184926e+07     25s
  163167    8.0412156e+06   0.000000e+00   2.995403e+07     30s
  183635    7.8721617e+06   0.000000e+00   4.529636e+06     35s
  199276    7.7407394e+06   0.000000e+00   8.940658e+07     40s
  209897    7.6707237e+06   0.000000e+00   6.682741e+07     45s
Concurrent spin time: 0.00s

Solved with dual simplex

Root simplex log...

Iteration    Objective       Primal Inf.    Dual Inf.      Time
  111361    7.5015521e+06   0.000000e+00   0.000000e+00     46s

Root relaxation: objective 7.501552e+06, 111361 iterations, 45.87 seconds (42.51 work units)

    Nodes    |    Current Node    |     Objective Bounds      |     Work
 Expl Unexpl |  Obj  Depth IntInf | Incumbent    BestBd   Gap | It/Node Time

     0     0 7501552.10    0 1439 1.4581e+07 7501552.10  48.6%     -   47s
     0     0 8092713.78    0 1647 1.4581e+07 8092713.78  44.5%     -  168s
     0     0 8276251.75    0 1651 1.4581e+07 8276251.75  43.2%     -  234s
     0     0 8297627.33    0 1692 1.4581e+07 8297627.33  43.1%     -  264s
     0     0 8301870.98    0 1707 1.4581e+07 8301870.98  43.1%     -  277s
     0     0 8302504.84    0 1714 1.4581e+07 8302504.84  43.1%     -  282s
     0     0 8302565.75    0 1704 1.4581e+07 8302565.75  43.1%     -  283s
     0     0 8845771.66    0 1734 1.4581e+07 8845771.66  39.3%     -  501s
H    0     0                    1.455775e+07 9189143.69  36.9%     -  698s
     0     0 9189143.69    0 1735 1.4558e+07 9189143.69  36.9%     -  719s
     0     0 9281090.29    0 1790 1.4558e+07 9281090.29  36.2%     -  870s
H    0     0                    1.454414e+07 9317134.41  35.9%     -  967s
     0     0 9317134.41    0 1841 1.4544e+07 9317134.41  35.9%     -  967s
     0     0 9327104.44    0 1889 1.4544e+07 9327104.44  35.9%     - 1023s
     0     0 9330261.45    0 1879 1.4544e+07 9330261.45  35.8%     - 1057s
     0     0 9331522.33    0 1884 1.4544e+07 9331522.33  35.8%     - 1077s
     0     0 9331522.33    0 1847 1.4544e+07 9331522.33  35.8%     - 1097s
     0     0 9331910.43    0 1858 1.4544e+07 9331910.43  35.8%     - 1108s
     0     0 9331949.71    0 1877 1.4544e+07 9331949.71  35.8%     - 1112s
     0     0 9691784.93    0 1860 1.4544e+07 9691784.93  33.4%     - 1403s
H    0     0                    1.453677e+07 9691784.93  33.3%     - 1404s
     0     0 9835860.09    0 1879 1.4537e+07 9835860.09  32.3%     - 1723s
     0     0 9887137.42    0 1925 1.4537e+07 9887137.42  32.0%     - 1875s
     0     0 9910516.03    0 1945 1.4537e+07 9910516.03  31.8%     - 1995s
     0     0 9910516.03    0 1929 1.4537e+07 9910516.03  31.8%     - 2023s
H    0     0                    1.452814e+07 9917693.55  31.7%     - 2099s
     0     0 9917693.55    0 1931 1.4528e+07 9917693.55  31.7%     - 2134s
     0     0 9917693.55    0 1921 1.4528e+07 9917693.55  31.7%     - 2135s
     0     0 9920047.69    0 1917 1.4528e+07 9920047.69  31.7%     - 2170s
     0     0 9921249.11    0 1946 1.4528e+07 9921249.11  31.7%     - 2201s
     0     0 9921249.11    0 1945 1.4528e+07 9921249.11  31.7%     - 2201s
     0     0 9921885.69    0 1987 1.4528e+07 9921885.69  31.7%     - 2223s
     0     0 9921885.69    0 1972 1.4528e+07 9921885.69  31.7%     - 2226s
     0     0 9922042.89    0 2003 1.4528e+07 9922042.89  31.7%     - 2237s
     0     0 9922042.89    0 1970 1.4528e+07 9922042.89  31.7%     - 2259s
     0     0 1.0053e+07    0 1854 1.4528e+07 1.0053e+07  30.8%     - 2718s
     0     0 1.0053e+07    0 1854 1.4528e+07 1.0053e+07  30.8%     - 2718s
     0     0 1.0119e+07    0 1896 1.4528e+07 1.0119e+07  30.4%     - 3004s
     0     0 1.0119e+07    0 1890 1.4528e+07 1.0119e+07  30.4%     - 3005s
     0     0 1.0143e+07    0 1909 1.4528e+07 1.0143e+07  30.2%     - 3166s
     0     0 1.0160e+07    0 1911 1.4528e+07 1.0160e+07  30.1%     - 3292s
     0     0 1.0166e+07    0 1934 1.4528e+07 1.0166e+07  30.0%     - 3404s
     0     0 1.0170e+07    0 1966 1.4528e+07 1.0170e+07  30.0%     - 3481s
     0     0 1.0171e+07    0 1967 1.4528e+07 1.0171e+07  30.0%     - 3520s
     0     0 1.0171e+07    0 1947 1.4528e+07 1.0171e+07  30.0%     - 3554s
     0     0 1.0171e+07    0 1984 1.4528e+07 1.0171e+07  30.0%     - 3573s
     0     0 1.0171e+07    0 1937 1.4528e+07 1.0171e+07  30.0%     - 3601s
     0     0 1.0267e+07    0 1816 1.4528e+07 1.0267e+07  29.3%     - 4035s
     0     0 1.0310e+07    0 1887 1.4528e+07 1.0310e+07  29.0%     - 4221s
     0     0 1.0331e+07    0 1888 1.4528e+07 1.0331e+07  28.9%     - 4390s
     0     0 1.0339e+07    0 1897 1.4528e+07 1.0339e+07  28.8%     - 4498s
     0     0 1.0339e+07    0 1914 1.4528e+07 1.0339e+07  28.8%     - 4498s
     0     0 1.0342e+07    0 1928 1.4528e+07 1.0342e+07  28.8%     - 4553s
     0     0 1.0344e+07    0 1943 1.4528e+07 1.0344e+07  28.8%     - 4588s
     0     0 1.0344e+07    0 1924 1.4528e+07 1.0344e+07  28.8%     - 4630s
     0     0 1.0344e+07    0 1970 1.4528e+07 1.0344e+07  28.8%     - 4648s
     0     0 1.0344e+07    0 1929 1.4528e+07 1.0344e+07  28.8%     - 4670s
     0     0 1.0379e+07    0 1885 1.4528e+07 1.0379e+07  28.6%     - 4926s
     0     0 1.0406e+07    0 1919 1.4528e+07 1.0406e+07  28.4%     - 5137s
     0     0 1.0406e+07    0 1883 1.4528e+07 1.0406e+07  28.4%     - 5174s
H    0     0                    1.451789e+07 1.0424e+07  28.2%     - 5294s
     0     0 1.0424e+07    0 1914 1.4518e+07 1.0424e+07  28.2%     - 5294s
     0     0 1.0428e+07    0 1913 1.4518e+07 1.0428e+07  28.2%     - 5370s
     0     0 1.0432e+07    0 1947 1.4518e+07 1.0432e+07  28.1%     - 5430s
     0     0 1.0433e+07    0 1932 1.4518e+07 1.0433e+07  28.1%     - 5462s
     0     0 1.0455e+07    0 1950 1.4518e+07 1.0455e+07  28.0%     - 5670s
H    0     0                    1.450795e+07 1.0470e+07  27.8%     - 5828s
     0     0 1.0470e+07    0 1954 1.4508e+07 1.0470e+07  27.8%     - 5829s
     0     0 1.0480e+07    0 1914 1.4508e+07 1.0480e+07  27.8%     - 5951s
     0     0 1.0484e+07    0 1896 1.4508e+07 1.0484e+07  27.7%     - 6025s
     0     0 1.0485e+07    0 1916 1.4508e+07 1.0485e+07  27.7%     - 6057s
     0     0 1.0486e+07    0 1909 1.4508e+07 1.0486e+07  27.7%     - 6090s
     0     0 1.0503e+07    0 1950 1.4508e+07 1.0503e+07  27.6%     - 6247s
     0     0 1.0503e+07    0 1942 1.4508e+07 1.0503e+07  27.6%     - 6277s
     0     0 1.0509e+07    0 1932 1.4508e+07 1.0509e+07  27.6%     - 6387s
     0     0 1.0512e+07    0 1931 1.4508e+07 1.0512e+07  27.5%     - 6446s
     0     0 1.0514e+07    0 1958 1.4508e+07 1.0514e+07  27.5%     - 6505s
     0     0 1.0515e+07    0 1969 1.4508e+07 1.0515e+07  27.5%     - 6540s
     0     0 1.0526e+07    0 1974 1.4508e+07 1.0526e+07  27.4%     - 6705s
     0     0 1.0526e+07    0 1915 1.4508e+07 1.0526e+07  27.4%     - 6748s
     0     0 1.0533e+07    0 1952 1.4508e+07 1.0533e+07  27.4%     - 6829s
     0     0 1.0534e+07    0 1959 1.4508e+07 1.0534e+07  27.4%     - 6869s
     0     0 1.0534e+07    0 1946 1.4508e+07 1.0534e+07  27.4%     - 6918s
     0     0 1.0567e+07    0 1980 1.4508e+07 1.0567e+07  27.2%     - 7144s
     0     0 1.0567e+07    0 1978 1.4508e+07 1.0567e+07  27.2%     - 7146s
     0     0 1.0578e+07    0 1935 1.4508e+07 1.0578e+07  27.1%     - 7291s
     0     0 1.0582e+07    0 1965 1.4508e+07 1.0582e+07  27.1%     - 7371s
     0     0 1.0588e+07    0 1972 1.4508e+07 1.0588e+07  27.0%     - 7476s
     0     0 1.0590e+07    0 1994 1.4508e+07 1.0590e+07  27.0%     - 7561s
     0     0 1.0592e+07    0 1983 1.4508e+07 1.0592e+07  27.0%     - 7618s
     0     0 1.0593e+07    0 2010 1.4508e+07 1.0593e+07  27.0%     - 7660s
     0     0 1.0594e+07    0 2000 1.4508e+07 1.0594e+07  27.0%     - 7679s
     0     0 1.0642e+07    0 1942 1.4508e+07 1.0642e+07  26.6%     - 7972s
     0     0 1.0663e+07    0 1962 1.4508e+07 1.0663e+07  26.5%     - 8333s
     0     0 1.0667e+07    0 1876 1.4508e+07 1.0667e+07  26.5%     - 8475s
     0     0 1.0669e+07    0 1904 1.4508e+07 1.0669e+07  26.5%     - 8529s
     0     0 1.0669e+07    0 1883 1.4508e+07 1.0669e+07  26.5%     - 8595s
     0     0 1.0704e+07    0 1962 1.4508e+07 1.0704e+07  26.2%     - 8965s
     0     0 1.0721e+07    0 1971 1.4508e+07 1.0721e+07  26.1%     - 9183s
     0     0 1.0726e+07    0 1948 1.4508e+07 1.0726e+07  26.1%     - 9272s
     0     0 1.0726e+07    0 1951 1.4508e+07 1.0726e+07  26.1%     - 9315s
     0     0 1.0728e+07    0 1983 1.4508e+07 1.0728e+07  26.1%     - 9389s
     0     0 1.0728e+07    0 1952 1.4508e+07 1.0728e+07  26.1%     - 9440s
     0     0 1.0729e+07    0 1985 1.4508e+07 1.0729e+07  26.0%     - 9494s
     0     0 1.0729e+07    0 1982 1.4508e+07 1.0729e+07  26.0%     - 9506s
     0     0 1.0770e+07    0 1965 1.4508e+07 1.0770e+07  25.8%     - 9799s
     0     0 1.0770e+07    0 1950 1.4508e+07 1.0770e+07  25.8%     - 9858s
H    0     0                    1.450718e+07 1.0793e+07  25.6%     - 10251s
     0     0 1.0793e+07    0 1936 1.4507e+07 1.0793e+07  25.6%     - 10295s
     0     0 1.0803e+07    0 1983 1.4507e+07 1.0803e+07  25.5%     - 10556s
     0     0 1.0806e+07    0 1993 1.4507e+07 1.0806e+07  25.5%     - 10669s
     0     0 1.0808e+07    0 1984 1.4507e+07 1.0808e+07  25.5%     - 10722s
     0     0 1.0850e+07    0 2056 1.4507e+07 1.0850e+07  25.2%     - 11075s
     0     0 1.0870e+07    0 1997 1.4507e+07 1.0870e+07  25.1%     - 11351s
     0     0 1.0870e+07    0 1950 1.4507e+07 1.0870e+07  25.1%     - 11406s
     0     0 1.0881e+07    0 2029 1.4507e+07 1.0881e+07  25.0%     - 11642s
     0     0 1.0895e+07    0 2043 1.4507e+07 1.0895e+07  24.9%     - 11869s
     0     0 1.0895e+07    0 2047 1.4507e+07 1.0895e+07  24.9%     - 11870s
     0     0 1.0900e+07    0 2054 1.4507e+07 1.0900e+07  24.9%     - 12008s
     0     0 1.0900e+07    0 2056 1.4507e+07 1.0900e+07  24.9%     - 12009s
     0     0 1.0902e+07    0 2042 1.4507e+07 1.0902e+07  24.9%     - 12065s
     0     0 1.0922e+07    0 2027 1.4507e+07 1.0922e+07  24.7%     - 12450s
     0     0 1.0932e+07    0 2018 1.4507e+07 1.0932e+07  24.6%     - 12733s
     0     0 1.0932e+07    0 2032 1.4507e+07 1.0932e+07  24.6%     - 12734s
     0     0 1.0935e+07    0 2060 1.4507e+07 1.0935e+07  24.6%     - 12925s
     0     0 1.0935e+07    0 2054 1.4507e+07 1.0935e+07  24.6%     - 12985s
     0     0 1.0937e+07    0 2058 1.4507e+07 1.0937e+07  24.6%     - 13222s
     0     0 1.0937e+07    0 2023 1.4507e+07 1.0937e+07  24.6%     - 13265s
     0     0 1.0943e+07    0 1956 1.4507e+07 1.0943e+07  24.6%     - 14021s
     0     0 1.0943e+07    0 1956 1.4507e+07 1.0943e+07  24.6%     - 14022s
     0     0 1.0946e+07    0 1984 1.4507e+07 1.0946e+07  24.5%     - 14308s
     0     0 1.0948e+07    0 2004 1.4507e+07 1.0948e+07  24.5%     - 14671s
     0     0 1.0948e+07    0 2006 1.4507e+07 1.0948e+07  24.5%     - 14704s
     0     0 1.0950e+07    0 1977 1.4507e+07 1.0950e+07  24.5%     - 15068s
     0     0 1.0950e+07    0 1982 1.4507e+07 1.0950e+07  24.5%     - 15156s
     0     2 1.0950e+07    0 1971 1.4507e+07 1.0950e+07  24.5%     - 15323s
     1     4 1.0950e+07    1 1962 1.4507e+07 1.0950e+07  24.5%   230 15375s
     3     8 1.0951e+07    2 1924 1.4507e+07 1.0950e+07  24.5% 15118 15862s
     7    12 1.0953e+07    3 1943 1.4507e+07 1.0951e+07  24.5% 37253 16356s
    11    16 1.0952e+07    3 1948 1.4507e+07 1.0952e+07  24.5% 47005 16711s
    15    20 1.0960e+07    4 1977 1.4507e+07 1.0952e+07  24.5% 60537 17973s
    19    24 1.0967e+07    4 1985 1.4507e+07 1.0952e+07  24.5% 60650 18491s
    23    28 1.0980e+07    5 1950 1.4507e+07 1.0952e+07  24.5% 63700 19074s
    27    35 1.0978e+07    5 1968 1.4507e+07 1.0952e+07  24.5% 65907 19228s
    34    39 1.1019e+07    7 1935 1.4507e+07 1.0952e+07  24.5% 57672 19788s
    38    47 1.0992e+07    7 1929 1.4507e+07 1.0952e+07  24.5% 58909 19946s
    46    57 1.1004e+07    9 1908 1.4507e+07 1.0952e+07  24.5% 50690 20134s
    56    69 1.1019e+07   11 1924 1.4507e+07 1.0952e+07  24.5% 43843 20293s
    68    78 1.1038e+07   12 1882 1.4507e+07 1.0952e+07  24.5% 37765 20438s
    77    89 1.1062e+07   13 1879 1.4507e+07 1.0952e+07  24.5% 34780 20640s
    88    99 1.1141e+07   15 1828 1.4507e+07 1.0952e+07  24.5% 31984 20774s
    98   113 1.1046e+07   16 1896 1.4507e+07 1.0952e+07  24.5% 29603 20892s
   112   129 1.1058e+07   19 1904 1.4507e+07 1.0952e+07  24.5% 26754 21064s
   128   140 1.1091e+07   23 1884 1.4507e+07 1.0952e+07  24.5% 24443 21257s
H  139   149                    1.450306e+07 1.0952e+07  24.5% 23248 21381s
   148   158 1.1103e+07   25 1858 1.4503e+07 1.0952e+07  24.5% 22722 21549s
   157   170 1.1105e+07   26 1853 1.4503e+07 1.0952e+07  24.5% 21953 21954s
   169   179 1.1107e+07   27 1860 1.4503e+07 1.0952e+07  24.5% 21399 22200s
   178   186 1.1123e+07   29 1862 1.4503e+07 1.0952e+07  24.5% 21402 23230s
   185   199 1.1129e+07   31 1813 1.4503e+07 1.0952e+07  24.5% 23136 23486s
   198   214 1.1134e+07   35 1818 1.4503e+07 1.0952e+07  24.5% 22241 23794s
   213   237 1.1146e+07   38 1811 1.4503e+07 1.0952e+07  24.5% 21434 24026s
   236   253 1.1157e+07   44 1806 1.4503e+07 1.0952e+07  24.5% 20125 24284s
   249   253 1.1163e+07   44 1777 1.4503e+07 1.0952e+07  24.5% 19607 24285s
   252   266 1.1184e+07   45 1775 1.4503e+07 1.0952e+07  24.5% 19613 24531s
   265   278 1.1180e+07   46 1753 1.4503e+07 1.0952e+07  24.5% 19344 24777s
   277   297 1.1179e+07   50 1774 1.4503e+07 1.0952e+07  24.5% 19059 25031s
   296   318 1.1267e+07   54 1771 1.4503e+07 1.0952e+07  24.5% 18478 25350s
   317   343 1.1206e+07   58 1776 1.4503e+07 1.0952e+07  24.5% 17909 25609s
   342   359 1.1225e+07   65 1765 1.4503e+07 1.0952e+07  24.5% 17199 25949s
   353   359 1.1215e+07   66 1770 1.4503e+07 1.0952e+07  24.5% 17104 25950s
   358   379 1.1230e+07   67 1770 1.4503e+07 1.0952e+07  24.5% 17013 26318s
   378   387 1.1253e+07   74 1773 1.4503e+07 1.0952e+07  24.5% 16709 27007s
   386   414 1.1256e+07   75 1800 1.4503e+07 1.0952e+07  24.5% 16600 28036s
   413   424 1.1275e+07   82 1764 1.4503e+07 1.0952e+07  24.5% 16515 28414s
   423   456 1.1281e+07   84 1802 1.4503e+07 1.0952e+07  24.5% 16594 28765s
H  455   482                    1.449926e+07 1.0952e+07  24.5% 16104 29182s
H  462   482                    1.449461e+07 1.0952e+07  24.4% 16027 29182s
   481   507 1.1357e+07   96 1741 1.4495e+07 1.0952e+07  24.4% 15973 29621s
   506   536 1.1368e+07   98 1734 1.4495e+07 1.0952e+07  24.4% 15823 30069s
   535   573 1.1406e+07  103 1703 1.4495e+07 1.0952e+07  24.4% 15642 30471s
   572   598 1.1418e+07  107 1672 1.4495e+07 1.0952e+07  24.4% 15231 30917s
   597   631 1.1596e+07  110 1608 1.4495e+07 1.0952e+07  24.4% 15243 31425s
   630   660 1.1447e+07  115 1666 1.4495e+07 1.0952e+07  24.4% 15043 31990s
   659   701 1.1491e+07  123 1656 1.4495e+07 1.0952e+07  24.4% 15043 32591s
   700   735 1.1513e+07  132 1623 1.4495e+07 1.0952e+07  24.4% 14767 35010s
   734   792 1.1733e+07  139 1638 1.4495e+07 1.0952e+07  24.4% 15108 35605s
   791   848 1.1752e+07  150 1611 1.4495e+07 1.0952e+07  24.4% 14660 36239s
   847   891 1.1779e+07  166 1636 1.4495e+07 1.0952e+07  24.4% 14294 36865s
   890   953 1.1793e+07  176 1646 1.4495e+07 1.0952e+07  24.4% 14194 37623s
   952  1013 1.1835e+07  192 1615 1.4495e+07 1.0952e+07  24.4% 13813 38265s
  1012  1081 1.1858e+07  203 1609 1.4495e+07 1.0952e+07  24.4% 13552 38979s
  1080  1138 1.1890e+07  216 1608 1.4495e+07 1.0952e+07  24.4% 13233 40182s
  1137  1183 1.1912e+07  227 1599 1.4495e+07 1.0952e+07  24.4% 13082 41313s
H 1144  1183                    1.449437e+07 1.0952e+07  24.4% 13104 41313s
  1182  1248 1.1955e+07  235 1609 1.4494e+07 1.0952e+07  24.4% 13045 42676s
H 1201  1248                    1.448475e+07 1.0952e+07  24.4% 13043 42676s
  1247  1282 1.2172e+07  249 1593 1.4485e+07 1.0952e+07  24.4% 12956 51814s
  1281  1373 1.2172e+07  250 1572 1.4485e+07 1.0952e+07  24.4% 12865 53057s
  1372  1447 1.2264e+07  272 1536 1.4485e+07 1.0952e+07  24.4% 12583 55017s
  1446  1536 1.2275e+07  295 1548 1.4485e+07 1.0952e+07  24.4% 12424 56319s
  1535  1679 1.2372e+07  310 1533 1.4485e+07 1.0952e+07  24.4% 12238 57820s
  1678  1802 1.2621e+07  347 1480 1.4485e+07 1.0952e+07  24.4% 11743 59242s
H 1760  1802                    1.448364e+07 1.0952e+07  24.4% 11564 59242s
  1801  1960 1.2737e+07  372 1488 1.4484e+07 1.0952e+07  24.4% 11443 60627s
  1959  2082 1.2917e+07  416 1374 1.4484e+07 1.0952e+07  24.4% 11023 62134s
  2081  2318 1.3717e+07  447 1322 1.4484e+07 1.0952e+07  24.4% 10788 63691s
  2317  2597 1.3836e+07  532 1246 1.4484e+07 1.0952e+07  24.4% 10189 65193s
  2611  2935 1.3942e+07  621 1192 1.4484e+07 1.0952e+07  24.4%  9512 66503s
  2951  3123 1.4131e+07  706 1129 1.4484e+07 1.0952e+07  24.4%  8824 67753s
  3147  3497 1.4316e+07  770 1047 1.4484e+07 1.0952e+07  24.4%  8502 68808s
  3548  3612 1.1042e+07   11 1972 1.4484e+07 1.0952e+07  24.4%  7852 70091s
  3665  3723 1.1062e+07   17 1940 1.4484e+07 1.0952e+07  24.4%  7801 71851s
  3803  3801 1.1121e+07   36 1857 1.4484e+07 1.0952e+07  24.4%  7805 73543s
  3883  3866 1.1233e+07   56 1834 1.4484e+07 1.0952e+07  24.4%  7904 74473s
  3949  3867 1.1361e+07   91 1982 1.4484e+07 1.0952e+07  24.4%  7946 77058s
  3951  3868 1.4138e+07  906 1475 1.4484e+07 1.0952e+07  24.4%  7942 77188s
  3952  3869 1.2386e+07  483 1657 1.4484e+07 1.0952e+07  24.4%  7940 77463s
  3953  3870 1.4160e+07  723 1755 1.4484e+07 1.0952e+07  24.4%  7938 77815s
  3954  3870 1.0992e+07    8 1781 1.4484e+07 1.0952e+07  24.4%  7936 78270s
  3955  3871 1.3785e+07  594 1893 1.4484e+07 1.0952e+07  24.4%  7934 78814s
  3956  3872 1.3023e+07  539 1899 1.4484e+07 1.0952e+07  24.4%  7932 79186s
  3957  3872 1.1439e+07  109 1977 1.4484e+07 1.0952e+07  24.4%  7930 79592s
  3958  3873 1.2392e+07  321 1945 1.4484e+07 1.0952e+07  24.4%  7928 80307s
  3959  3874 1.1799e+07  141 2010 1.4484e+07 1.0952e+07  24.4%  7926 80995s
  3960  3874 1.2484e+07  426 1994 1.4484e+07 1.0952e+07  24.4%  7924 81522s
  3961  3875 1.3650e+07  536 2045 1.4484e+07 1.0952e+07  24.4%  7922 82149s
  3962  3876 1.2974e+07  525 2042 1.4484e+07 1.0952e+07  24.4%  7920 82676s
  3963  3876 1.1895e+07  135 2010 1.4484e+07 1.0952e+07  24.4%  7918 83168s
  3964  3877 1.3210e+07  607 2053 1.4484e+07 1.0952e+07  24.4%  7916 83641s

Cutting planes:
  Gomory: 4
  Cover: 4
  Implied bound: 345
  Projected implied bound: 1
  MIR: 473
  StrongCG: 4
  Flow cover: 2726
  GUB cover: 1
  Zero half: 4
  RLT: 445
  Relax-and-lift: 454

Explored 3964 nodes (37275372 simplex iterations) in 83706.44 seconds (74533.91 work units)
Thread count was 4 (of 128 available processors)

Solution count 10: 1.44836e+07 1.44848e+07 1.44944e+07 ... 1.45281e+07

Time limit reached
Best objective 1.448363500000e+07, best bound 1.095239188348e+07, gap 24.3809%

Solving took 	23:15:06.490
####################################################################################################
####################################################################################################
####################################################################################################
Reached timelimit, but could find a feasible solution
####################################################################################################
Description                          Value
----------------------------  ------------
Objective (min)               14,483,635.0
Cost sailing                   5,086,496.0
Cost port visits               8,414,000.0
Cost transshipment (demands)   1,367,138.0
Cost transshipment (empties)     111,399.0
Penalty delayed demands          717,342.0
Revenue Empties                1,425,240.0
Penalty rejected demands         212,500.0
Rejected demands (%)                  0.04
Omitted ports (%)                    20.66
Gap (%)                              24.38
####################################################################################################
Export solution
####################################################################################################
Overall time 	23:15:09.052

real	1395m10.029s
user	3735m56.363s
sys	0m34.711s
finished at Sat Mar 18 11:34:00 CET 2023
